Solver command line: ['C:\\Users\\Gabriela Escobar\\anaconda3\\envs\\pyomo_env\\Library\\bin\\glpsol.exe', '--write', 'C:\\Users\\GABRIE~1\\AppData\\Local\\Temp\\tmpbidu3eg0.glpk.raw', '--wglp', 'C:\\Users\\GABRIE~1\\AppData\\Local\\Temp\\tmpqa79b366.glpk.glp', '--cpxlp', 'C:\\Users\\GABRIE~1\\AppData\\Local\\Temp\\tmptkh9bmfg.pyomo.lp']

GLPSOL--GLPK LP/MIP Solver 5.0
Parameter(s) specified in the command line:
 --write C:\Users\GABRIE~1\AppData\Local\Temp\tmpbidu3eg0.glpk.raw --wglp
 C:\Users\GABRIE~1\AppData\Local\Temp\tmpqa79b366.glpk.glp --cpxlp C:\Users\GABRIE~1\AppData\Local\Temp\tmptkh9bmfg.pyomo.lp
Reading problem data from 'C:\Users\GABRIE~1\AppData\Local\Temp\tmptkh9bmfg.pyomo.lp'...
101 rows, 101 columns, 10001 non-zeros
10512 lines were read
Writing problem data to 'C:\Users\GABRIE~1\AppData\Local\Temp\tmpqa79b366.glpk.glp'...
10407 lines were written
GLPK Simplex Optimizer 5.0
101 rows, 101 columns, 10001 non-zeros
Preprocessing...
100 rows, 100 columns, 10000 non-zeros
Scaling...
 A: min|aij| =  9.765e-04  max|aij| =  5.000e+00  ratio =  5.120e+03
GM: min|aij| =  1.882e-02  max|aij| =  5.313e+01  ratio =  2.823e+03
EQ: min|aij| =  3.554e-04  max|aij| =  1.000e+00  ratio =  2.813e+03
Constructing initial basis...
Size of triangular part is 100
*     0: obj =  -0.000000000e+00 inf =   0.000e+00 (100)
*    55: obj =   4.131091163e+02 inf =   0.000e+00 (0)
OPTIMAL LP SOLUTION FOUND
Time used:   0.0 secs
Memory used: 1.7 Mb (1793764 bytes)
Writing basic solution to 'C:\Users\GABRIE~1\AppData\Local\Temp\tmpbidu3eg0.glpk.raw'...
211 lines were written

